<number of tasks>
20

<cycle time>
1000

<order strength>
0,226


<task times>
1 564
2 550
3 411
4 350
5 650
6 517
7 275
8 475
9 576
10 457
11 573
12 349
13 705
14 464
15 415
16 676
17 654
18 445
19 443
20 708

<precedence relations>
1,6
4,7
6,8
7,9
7,10
7,11
7,12
8,13
9,15
10,14
11,16
11,17
13,19
14,18
15,19
16,20

<end>
